benchmarks/random2000_fmcad/20230329-automatark-lu/instance09334.smt2
(set-info :smt-lib-version 2.6)
(set-logic QF_S)
(set-info :source |
Generated by: Murphy Berzish, Mitja Kulczynski, Federico Mora, Florin Manea, Joel Day, Dirk Nowotka, Vijay Ganesh, Zhengyang Lu
Generated on: 2020-10-01
Description: Translated from a collection of real-world regex queries, AutomataArk, collected by Loris D’Antoni and Fang Wang: https://github.com/lorisdanto/automatark
Application: Evaluate solvers on real-world regex queries
Target solver: Z3str3RE, CVC4, OSTRICH, Z3seq, Z3str3, Z3-Trau
Publications: Berzish, M., Kulczynski, M., Mora, F., Manea, F., Day, J. D., Nowotka, D., & Ganesh, V. (2021, July). An SMT solver for regular expressions and linear arithmetic over string length. In CAV 2021.
|)
(set-info :license "https://creativecommons.org/licenses/by/4.0/")
(set-info :category "industrial")
(set-info :status unsat)

(declare-const X String)
(assert (not (str.in_re X (re.++ (re.union (re.++ (str.to_re "GIR\u{5c}") (re.opt (str.to_re "s")) (str.to_re "0AA")) (re.++ (re.union (re.range "A" "P") (re.range "R" "U") (str.to_re "W") (str.to_re "Y") (str.to_re "Z")) (re.union ((_ re.loop 1 2) (re.range "0" "9")) (re.++ (re.union (re.range "A" "H") (re.range "K" "Y")) (re.range "0" "9") (re.union (re.range "0" "9") (str.to_re "A") (str.to_re "B") (str.to_re "E") (str.to_re "H") (str.to_re "M") (str.to_re "N") (str.to_re "P") (str.to_re "R") (re.range "V" "Y"))) (re.++ (re.range "0" "9") (re.union (re.range "A" "H") (str.to_re "J") (str.to_re "K") (re.range "S" "U") (str.to_re "W")))) (str.to_re "\u{5c}") (re.opt (str.to_re "s")) (re.range "0" "9") ((_ re.loop 2 2) (re.union (str.to_re "A") (str.to_re "B") (re.range "D" "H") (str.to_re "J") (str.to_re "L") (str.to_re "N") (re.range "P" "U") (re.range "W" "Z"))))) (str.to_re "\u{a}")))))
(assert (str.in_re X (str.to_re "http://tv.seekmo.com/showme.aspx?keyword=\u{a}")))
(assert (str.in_re X (re.++ (str.to_re "User-Agent:") (re.+ (re.union (str.to_re " ") (str.to_re "\u{9}") (str.to_re "\u{a}") (str.to_re "\u{c}") (str.to_re "\u{d}"))) (str.to_re "Subject:as.starware.com\u{a}"))))
(assert (str.in_re X (re.++ (str.to_re "//evil/services/bid_register.php?BID=") ((_ re.loop 6 6) (re.union (re.range "A" "Z") (re.range "a" "z"))) (str.to_re "&IP=") ((_ re.loop 1 3) (re.range "0" "9")) (str.to_re ".") ((_ re.loop 1 3) (re.range "0" "9")) (str.to_re ".") ((_ re.loop 1 3) (re.range "0" "9")) (str.to_re ".") ((_ re.loop 1 3) (re.range "0" "9")) (str.to_re "&cipher=") ((_ re.loop 9 9) (re.union (re.range "A" "Z") (re.range "a" "z"))) (str.to_re "/smiU\u{a}"))))
(check-sat)

(exit)
